Ce Fe Si2                               
   1.0000000000000000     
     4.0350136412460280    0.0000000000000000    0.0000000000000000
     0.0000000000000000   16.7419102355483673    0.0000000000000000
     0.0000000000000000    0.0000000000000000    4.0064973278329266
   Si   Fe   Ce
     8     4     4
Direct
 -0.0000000000000000  0.0402630911280713  0.2500000000000000
 -0.0000000000000000  0.9597369088719286  0.7500000000000000
  0.5000000000000000  0.5402630911280714  0.2500000000000000
  0.5000000000000000  0.4597369088719287  0.7500000000000000
 -0.0000000000000000  0.7497915055792884  0.2500000000000000
 -0.0000000000000000  0.2502084944207045  0.7500000000000000
  0.5000000000000000  0.2497915055792955  0.2500000000000000
  0.5000000000000000  0.7502084944207116  0.7500000000000000
  0.0000000000000000  0.1754650023181689  0.2500000000000000
 -0.0000000000000000  0.8245349976818311  0.7500000000000000
  0.5000000000000000  0.6754650023181689  0.2500000000000000
  0.5000000000000000  0.3245349976818311  0.7500000000000000
 -0.0000000000000000  0.3894407675506300  0.2500000000000000
 -0.0000000000000000  0.6105592324493699  0.7500000000000000
  0.5000000000000000  0.8894407675506301  0.2500000000000000
  0.5000000000000000  0.1105592324493700  0.7500000000000000

  0.00000000E+00  0.00000000E+00  0.00000000E+00
  0.00000000E+00  0.00000000E+00  0.00000000E+00
  0.00000000E+00  0.00000000E+00  0.00000000E+00
  0.00000000E+00  0.00000000E+00  0.00000000E+00
  0.00000000E+00  0.00000000E+00  0.00000000E+00
  0.00000000E+00  0.00000000E+00  0.00000000E+00
  0.00000000E+00  0.00000000E+00  0.00000000E+00
  0.00000000E+00  0.00000000E+00  0.00000000E+00
  0.00000000E+00  0.00000000E+00  0.00000000E+00
  0.00000000E+00  0.00000000E+00  0.00000000E+00
  0.00000000E+00  0.00000000E+00  0.00000000E+00
  0.00000000E+00  0.00000000E+00  0.00000000E+00
  0.00000000E+00  0.00000000E+00  0.00000000E+00
  0.00000000E+00  0.00000000E+00  0.00000000E+00
  0.00000000E+00  0.00000000E+00  0.00000000E+00
  0.00000000E+00  0.00000000E+00  0.00000000E+00
